c Random 20-regular graph n=300
c Uniform degree, no exploitable structure, chi~10+
c Hard for both: feromones find no pattern, SA landscape is flat
p edge 300 3000
e 1 3
e 1 4
e 1 15
e 1 28
e 1 41
e 1 50
e 1 55
e 1 63
e 1 69
e 1 76
e 1 84
e 1 131
e 1 147
e 1 154
e 1 160
e 1 188
e 1 221
e 1 246
e 1 249
e 1 275
e 2 55
e 2 56
e 2 58
e 2 65
e 2 89
e 2 91
e 2 107
e 2 111
e 2 121
e 2 124
e 2 128
e 2 129
e 2 183
e 2 186
e 2 207
e 2 216
e 2 223
e 2 229
e 2 235
e 2 277
e 3 42
e 3 64
e 3 71
e 3 72
e 3 88
e 3 90
e 3 95
e 3 104
e 3 121
e 3 146
e 3 165
e 3 171
e 3 177
e 3 182
e 3 187
e 3 222
e 3 258
e 3 260
e 3 275
e 4 28
e 4 35
e 4 49
e 4 63
e 4 119
e 4 120
e 4 137
e 4 138
e 4 145
e 4 152
e 4 188
e 4 191
e 4 232
e 4 237
e 4 247
e 4 249
e 4 255
e 4 288
e 4 290
e 5 11
e 5 28
e 5 36
e 5 45
e 5 53
e 5 61
e 5 83
e 5 97
e 5 107
e 5 108
e 5 129
e 5 150
e 5 153
e 5 185
e 5 195
e 5 197
e 5 232
e 5 258
e 5 271
e 5 299
e 6 7
e 6 21
e 6 27
e 6 51
e 6 108
e 6 126
e 6 142
e 6 170
e 6 196
e 6 213
e 6 214
e 6 221
e 6 234
e 6 248
e 6 249
e 6 253
e 6 259
e 6 271
e 6 288
e 6 295
e 7 13
e 7 19
e 7 24
e 7 29
e 7 63
e 7 103
e 7 110
e 7 125
e 7 128
e 7 146
e 7 156
e 7 160
e 7 175
e 7 216
e 7 243
e 7 249
e 7 254
e 7 284
e 7 297
e 8 15
e 8 28
e 8 41
e 8 70
e 8 72
e 8 78
e 8 93
e 8 136
e 8 150
e 8 161
e 8 177
e 8 193
e 8 203
e 8 225
e 8 227
e 8 230
e 8 244
e 8 257
e 8 260
e 8 278
e 9 15
e 9 67
e 9 84
e 9 94
e 9 134
e 9 138
e 9 186
e 9 190
e 9 193
e 9 207
e 9 210
e 9 217
e 9 237
e 9 242
e 9 257
e 9 261
e 9 274
e 9 292
e 9 296
e 9 297
e 10 26
e 10 27
e 10 40
e 10 41
e 10 62
e 10 70
e 10 99
e 10 109
e 10 124
e 10 133
e 10 142
e 10 157
e 10 159
e 10 194
e 10 195
e 10 200
e 10 221
e 10 268
e 10 284
e 10 293
e 11 24
e 11 31
e 11 36
e 11 81
e 11 94
e 11 125
e 11 129
e 11 147
e 11 173
e 11 184
e 11 189
e 11 192
e 11 207
e 11 231
e 11 275
e 11 280
e 11 288
e 11 292
e 11 298
e 12 19
e 12 29
e 12 36
e 12 66
e 12 68
e 12 104
e 12 114
e 12 194
e 12 214
e 12 215
e 12 234
e 12 236
e 12 241
e 12 249
e 12 254
e 12 285
e 12 286
e 12 287
e 12 289
e 12 300
e 13 29
e 13 59
e 13 61
e 13 68
e 13 91
e 13 109
e 13 128
e 13 129
e 13 136
e 13 138
e 13 140
e 13 152
e 13 175
e 13 197
e 13 210
e 13 247
e 13 256
e 13 259
e 13 300
e 14 15
e 14 21
e 14 44
e 14 74
e 14 77
e 14 81
e 14 84
e 14 104
e 14 124
e 14 152
e 14 168
e 14 171
e 14 189
e 14 193
e 14 196
e 14 208
e 14 231
e 14 253
e 14 273
e 14 296
e 15 18
e 15 19
e 15 33
e 15 77
e 15 89
e 15 123
e 15 138
e 15 140
e 15 178
e 15 180
e 15 217
e 15 229
e 15 243
e 15 244
e 15 296
e 15 300
e 16 25
e 16 26
e 16 30
e 16 39
e 16 68
e 16 77
e 16 96
e 16 104
e 16 114
e 16 140
e 16 145
e 16 159
e 16 161
e 16 166
e 16 170
e 16 190
e 16 210
e 16 235
e 16 283
e 16 289
e 17 27
e 17 34
e 17 36
e 17 96
e 17 98
e 17 115
e 17 117
e 17 134
e 17 145
e 17 153
e 17 164
e 17 172
e 17 202
e 17 217
e 17 233
e 17 250
e 17 251
e 17 262
e 17 286
e 17 296
e 18 20
e 18 35
e 18 72
e 18 76
e 18 79
e 18 86
e 18 102
e 18 110
e 18 116
e 18 130
e 18 139
e 18 154
e 18 208
e 18 215
e 18 216
e 18 242
e 18 255
e 18 262
e 18 292
e 19 32
e 19 57
e 19 67
e 19 89
e 19 103
e 19 110
e 19 136
e 19 139
e 19 152
e 19 155
e 19 203
e 19 236
e 19 239
e 19 241
e 19 246
e 19 255
e 19 299
e 20 28
e 20 32
e 20 35
e 20 60
e 20 61
e 20 70
e 20 73
e 20 91
e 20 156
e 20 157
e 20 169
e 20 173
e 20 196
e 20 214
e 20 217
e 20 230
e 20 237
e 20 241
e 20 299
e 21 26
e 21 34
e 21 39
e 21 91
e 21 97
e 21 105
e 21 112
e 21 126
e 21 147
e 21 167
e 21 172
e 21 176
e 21 184
e 21 235
e 21 236
e 21 250
e 21 252
e 21 266
e 22 24
e 22 29
e 22 65
e 22 72
e 22 73
e 22 74
e 22 104
e 22 107
e 22 113
e 22 115
e 22 124
e 22 138
e 22 171
e 22 182
e 22 203
e 22 206
e 22 219
e 22 241
e 22 246
e 22 290
e 23 34
e 23 36
e 23 41
e 23 67
e 23 71
e 23 80
e 23 96
e 23 116
e 23 118
e 23 122
e 23 159
e 23 160
e 23 167
e 23 181
e 23 205
e 23 210
e 23 238
e 23 258
e 23 259
e 23 285
e 24 37
e 24 44
e 24 70
e 24 71
e 24 73
e 24 86
e 24 135
e 24 141
e 24 146
e 24 191
e 24 197
e 24 205
e 24 215
e 24 241
e 24 271
e 24 272
e 24 283
e 25 68
e 25 79
e 25 133
e 25 140
e 25 141
e 25 156
e 25 158
e 25 161
e 25 166
e 25 169
e 25 181
e 25 204
e 25 224
e 25 225
e 25 228
e 25 235
e 25 269
e 25 273
e 25 286
e 26 31
e 26 41
e 26 53
e 26 83
e 26 109
e 26 114
e 26 119
e 26 132
e 26 157
e 26 224
e 26 225
e 26 239
e 26 242
e 26 259
e 26 266
e 26 267
e 26 271
e 27 44
e 27 54
e 27 58
e 27 71
e 27 89
e 27 93
e 27 113
e 27 118
e 27 130
e 27 151
e 27 163
e 27 174
e 27 176
e 27 185
e 27 237
e 27 248
e 27 250
e 28 63
e 28 66
e 28 67
e 28 72
e 28 84
e 28 86
e 28 126
e 28 135
e 28 161
e 28 186
e 28 193
e 28 245
e 28 261
e 28 282
e 28 285
e 29 37
e 29 39
e 29 49
e 29 75
e 29 113
e 29 140
e 29 141
e 29 159
e 29 169
e 29 174
e 29 181
e 29 184
e 29 241
e 29 252
e 29 269
e 29 276
e 30 31
e 30 37
e 30 42
e 30 74
e 30 83
e 30 116
e 30 131
e 30 133
e 30 161
e 30 169
e 30 179
e 30 201
e 30 223
e 30 226
e 30 228
e 30 234
e 30 245
e 30 291
e 30 295
e 31 39
e 31 43
e 31 72
e 31 76
e 31 90
e 31 143
e 31 174
e 31 178
e 31 180
e 31 185
e 31 204
e 31 211
e 31 214
e 31 219
e 31 227
e 31 248
e 31 280
e 32 71
e 32 103
e 32 108
e 32 127
e 32 168
e 32 177
e 32 186
e 32 190
e 32 211
e 32 229
e 32 237
e 32 239
e 32 252
e 32 282
e 32 291
e 32 292
e 32 296
e 32 297
e 33 42
e 33 48
e 33 103
e 33 106
e 33 114
e 33 115
e 33 118
e 33 133
e 33 142
e 33 147
e 33 215
e 33 244
e 33 259
e 33 263
e 33 264
e 33 266
e 33 283
e 33 296
e 33 300
e 34 48
e 34 79
e 34 98
e 34 110
e 34 121
e 34 136
e 34 142
e 34 159
e 34 184
e 34 189
e 34 199
e 34 201
e 34 228
e 34 266
e 34 280
e 34 284
e 34 295
e 35 42
e 35 65
e 35 66
e 35 82
e 35 110
e 35 112
e 35 114
e 35 139
e 35 212
e 35 223
e 35 226
e 35 238
e 35 243
e 35 259
e 35 262
e 35 277
e 35 299
e 36 61
e 36 78
e 36 101
e 36 130
e 36 144
e 36 158
e 36 198
e 36 214
e 36 223
e 36 227
e 36 236
e 36 239
e 36 254
e 36 268
e 36 295
e 37 60
e 37 105
e 37 106
e 37 113
e 37 131
e 37 156
e 37 174
e 37 186
e 37 202
e 37 203
e 37 228
e 37 237
e 37 240
e 37 250
e 37 254
e 37 278
e 37 290
e 38 54
e 38 96
e 38 112
e 38 116
e 38 120
e 38 132
e 38 134
e 38 142
e 38 150
e 38 159
e 38 188
e 38 199
e 38 200
e 38 209
e 38 216
e 38 222
e 38 242
e 38 259
e 38 272
e 38 287
e 39 71
e 39 89
e 39 95
e 39 112
e 39 122
e 39 123
e 39 124
e 39 150
e 39 201
e 39 204
e 39 213
e 39 222
e 39 258
e 39 266
e 39 277
e 39 285
e 40 46
e 40 49
e 40 56
e 40 62
e 40 74
e 40 113
e 40 133
e 40 138
e 40 147
e 40 149
e 40 156
e 40 157
e 40 177
e 40 184
e 40 240
e 40 245
e 40 252
e 40 264
e 40 279
e 41 52
e 41 53
e 41 75
e 41 90
e 41 108
e 41 123
e 41 124
e 41 139
e 41 142
e 41 170
e 41 182
e 41 184
e 41 193
e 41 196
e 41 295
e 42 49
e 42 52
e 42 158
e 42 161
e 42 168
e 42 169
e 42 186
e 42 188
e 42 193
e 42 220
e 42 223
e 42 230
e 42 267
e 42 271
e 42 284
e 42 296
e 43 53
e 43 68
e 43 75
e 43 81
e 43 92
e 43 101
e 43 105
e 43 128
e 43 137
e 43 141
e 43 149
e 43 150
e 43 174
e 43 233
e 43 241
e 43 257
e 43 289
e 43 294
e 43 295
e 44 58
e 44 69
e 44 124
e 44 142
e 44 152
e 44 161
e 44 188
e 44 209
e 44 215
e 44 228
e 44 231
e 44 263
e 44 278
e 44 292
e 44 294
e 44 296
e 44 299
e 45 50
e 45 63
e 45 73
e 45 143
e 45 144
e 45 147
e 45 150
e 45 154
e 45 182
e 45 190
e 45 204
e 45 225
e 45 234
e 45 244
e 45 254
e 45 263
e 45 264
e 45 280
e 45 291
e 46 66
e 46 91
e 46 103
e 46 108
e 46 128
e 46 148
e 46 157
e 46 171
e 46 191
e 46 199
e 46 204
e 46 205
e 46 214
e 46 225
e 46 245
e 46 260
e 46 268
e 46 285
e 46 298
e 47 69
e 47 86
e 47 92
e 47 111
e 47 123
e 47 146
e 47 147
e 47 151
e 47 163
e 47 183
e 47 186
e 47 193
e 47 199
e 47 214
e 47 232
e 47 242
e 47 246
e 47 263
e 47 271
e 47 300
e 48 75
e 48 95
e 48 98
e 48 117
e 48 122
e 48 131
e 48 146
e 48 147
e 48 168
e 48 172
e 48 180
e 48 185
e 48 207
e 48 211
e 48 239
e 48 267
e 48 278
e 48 279
e 49 50
e 49 65
e 49 78
e 49 118
e 49 133
e 49 135
e 49 150
e 49 160
e 49 194
e 49 198
e 49 206
e 49 235
e 49 266
e 49 267
e 49 271
e 49 275
e 50 60
e 50 64
e 50 70
e 50 99
e 50 116
e 50 150
e 50 159
e 50 181
e 50 188
e 50 195
e 50 200
e 50 213
e 50 224
e 50 231
e 50 238
e 50 250
e 50 296
e 51 74
e 51 82
e 51 92
e 51 100
e 51 101
e 51 102
e 51 112
e 51 169
e 51 180
e 51 186
e 51 208
e 51 224
e 51 244
e 51 255
e 51 281
e 51 286
e 51 291
e 51 294
e 51 295
e 52 59
e 52 72
e 52 104
e 52 121
e 52 122
e 52 128
e 52 150
e 52 184
e 52 189
e 52 192
e 52 226
e 52 229
e 52 231
e 52 242
e 52 252
e 52 255
e 52 269
e 52 281
e 53 98
e 53 115
e 53 116
e 53 124
e 53 135
e 53 142
e 53 162
e 53 178
e 53 180
e 53 194
e 53 200
e 53 201
e 53 204
e 53 238
e 53 258
e 53 261
e 54 82
e 54 92
e 54 106
e 54 107
e 54 117
e 54 120
e 54 162
e 54 171
e 54 190
e 54 201
e 54 219
e 54 226
e 54 255
e 54 264
e 54 265
e 54 273
e 54 283
e 54 298
e 55 57
e 55 93
e 55 115
e 55 126
e 55 172
e 55 183
e 55 194
e 55 205
e 55 221
e 55 224
e 55 229
e 55 233
e 55 235
e 55 237
e 55 245
e 55 254
e 55 264
e 55 288
e 56 58
e 56 66
e 56 115
e 56 130
e 56 136
e 56 140
e 56 154
e 56 170
e 56 176
e 56 182
e 56 184
e 56 221
e 56 237
e 56 244
e 56 255
e 56 269
e 56 276
e 56 278
e 57 59
e 57 79
e 57 84
e 57 89
e 57 117
e 57 119
e 57 135
e 57 140
e 57 196
e 57 208
e 57 209
e 57 224
e 57 239
e 57 240
e 57 247
e 57 257
e 57 261
e 57 293
e 58 62
e 58 109
e 58 116
e 58 122
e 58 128
e 58 130
e 58 172
e 58 173
e 58 178
e 58 180
e 58 183
e 58 191
e 58 221
e 58 252
e 58 262
e 58 293
e 59 64
e 59 70
e 59 78
e 59 99
e 59 116
e 59 118
e 59 119
e 59 124
e 59 159
e 59 162
e 59 184
e 59 195
e 59 202
e 59 253
e 59 254
e 59 255
e 59 259
e 60 66
e 60 73
e 60 93
e 60 108
e 60 151
e 60 157
e 60 182
e 60 189
e 60 202
e 60 228
e 60 239
e 60 245
e 60 251
e 60 253
e 60 273
e 60 279
e 60 289
e 61 65
e 61 96
e 61 116
e 61 135
e 61 143
e 61 147
e 61 174
e 61 182
e 61 229
e 61 251
e 61 253
e 61 255
e 61 283
e 61 290
e 61 297
e 61 300
e 62 85
e 62 105
e 62 122
e 62 125
e 62 139
e 62 156
e 62 159
e 62 171
e 62 179
e 62 226
e 62 231
e 62 236
e 62 237
e 62 265
e 62 271
e 62 273
e 62 288
e 63 78
e 63 94
e 63 97
e 63 99
e 63 106
e 63 226
e 63 233
e 63 241
e 63 243
e 63 245
e 63 249
e 63 258
e 63 263
e 63 264
e 63 267
e 64 77
e 64 83
e 64 89
e 64 139
e 64 157
e 64 165
e 64 166
e 64 178
e 64 189
e 64 208
e 64 213
e 64 225
e 64 242
e 64 248
e 64 270
e 64 271
e 64 288
e 65 91
e 65 127
e 65 139
e 65 148
e 65 149
e 65 150
e 65 165
e 65 170
e 65 187
e 65 196
e 65 226
e 65 259
e 65 260
e 65 292
e 65 293
e 66 73
e 66 77
e 66 91
e 66 112
e 66 158
e 66 165
e 66 177
e 66 187
e 66 199
e 66 201
e 66 213
e 66 230
e 66 233
e 66 257
e 67 74
e 67 76
e 67 83
e 67 85
e 67 131
e 67 137
e 67 210
e 67 212
e 67 228
e 67 230
e 67 231
e 67 235
e 67 247
e 67 264
e 67 265
e 67 272
e 68 70
e 68 72
e 68 78
e 68 79
e 68 119
e 68 132
e 68 143
e 68 162
e 68 170
e 68 176
e 68 233
e 68 244
e 68 272
e 68 274
e 68 285
e 69 72
e 69 89
e 69 99
e 69 101
e 69 130
e 69 156
e 69 163
e 69 189
e 69 194
e 69 198
e 69 206
e 69 210
e 69 217
e 69 218
e 69 250
e 69 278
e 69 294
e 70 74
e 70 102
e 70 113
e 70 120
e 70 125
e 70 138
e 70 205
e 70 209
e 70 235
e 70 242
e 70 274
e 70 276
e 70 280
e 71 76
e 71 98
e 71 106
e 71 111
e 71 140
e 71 180
e 71 205
e 71 208
e 71 216
e 71 256
e 71 264
e 71 266
e 71 271
e 71 295
e 72 90
e 72 97
e 72 107
e 72 134
e 72 164
e 72 195
e 72 232
e 72 251
e 72 263
e 72 274
e 72 288
e 73 109
e 73 130
e 73 141
e 73 145
e 73 157
e 73 164
e 73 165
e 73 166
e 73 186
e 73 199
e 73 211
e 73 247
e 73 264
e 73 292
e 74 90
e 74 122
e 74 123
e 74 128
e 74 184
e 74 210
e 74 222
e 74 224
e 74 230
e 74 240
e 74 242
e 74 251
e 74 254
e 75 94
e 75 102
e 75 106
e 75 109
e 75 151
e 75 173
e 75 181
e 75 189
e 75 192
e 75 196
e 75 197
e 75 205
e 75 256
e 75 265
e 75 273
e 75 295
e 76 82
e 76 93
e 76 117
e 76 149
e 76 155
e 76 156
e 76 158
e 76 227
e 76 234
e 76 246
e 76 268
e 76 287
e 76 294
e 76 295
e 76 298
e 77 97
e 77 108
e 77 135
e 77 160
e 77 172
e 77 173
e 77 180
e 77 189
e 77 192
e 77 202
e 77 204
e 77 211
e 77 234
e 77 255
e 77 299
e 78 94
e 78 97
e 78 142
e 78 159
e 78 166
e 78 181
e 78 184
e 78 202
e 78 211
e 78 259
e 78 268
e 78 270
e 78 272
e 78 274
e 79 129
e 79 158
e 79 162
e 79 170
e 79 196
e 79 201
e 79 212
e 79 218
e 79 226
e 79 234
e 79 254
e 79 257
e 79 260
e 79 282
e 79 299
e 80 89
e 80 93
e 80 111
e 80 143
e 80 145
e 80 149
e 80 170
e 80 183
e 80 198
e 80 201
e 80 218
e 80 220
e 80 221
e 80 222
e 80 233
e 80 236
e 80 262
e 80 270
e 80 298
e 81 87
e 81 113
e 81 132
e 81 165
e 81 181
e 81 189
e 81 191
e 81 210
e 81 219
e 81 220
e 81 228
e 81 232
e 81 243
e 81 268
e 81 279
e 81 282
e 81 299
e 82 86
e 82 92
e 82 102
e 82 109
e 82 110
e 82 188
e 82 195
e 82 211
e 82 216
e 82 231
e 82 242
e 82 286
e 82 287
e 82 290
e 82 291
e 82 292
e 83 100
e 83 115
e 83 130
e 83 161
e 83 176
e 83 192
e 83 200
e 83 220
e 83 239
e 83 244
e 83 256
e 83 279
e 83 283
e 83 289
e 83 300
e 84 87
e 84 93
e 84 102
e 84 117
e 84 148
e 84 152
e 84 153
e 84 166
e 84 194
e 84 201
e 84 208
e 84 215
e 84 252
e 84 268
e 84 274
e 85 112
e 85 125
e 85 131
e 85 132
e 85 144
e 85 151
e 85 163
e 85 164
e 85 185
e 85 190
e 85 200
e 85 226
e 85 237
e 85 247
e 85 252
e 85 256
e 85 268
e 85 270
e 86 88
e 86 109
e 86 120
e 86 121
e 86 148
e 86 151
e 86 165
e 86 174
e 86 179
e 86 181
e 86 229
e 86 244
e 86 260
e 86 261
e 86 272
e 87 112
e 87 115
e 87 117
e 87 134
e 87 160
e 87 167
e 87 172
e 87 185
e 87 190
e 87 191
e 87 192
e 87 193
e 87 220
e 87 254
e 87 263
e 87 276
e 87 280
e 87 293
e 88 92
e 88 93
e 88 109
e 88 135
e 88 167
e 88 170
e 88 185
e 88 193
e 88 197
e 88 199
e 88 204
e 88 211
e 88 212
e 88 235
e 88 257
e 88 270
e 88 285
e 88 299
e 89 92
e 89 109
e 89 110
e 89 189
e 89 224
e 89 234
e 89 239
e 89 246
e 89 251
e 89 260
e 89 279
e 90 117
e 90 124
e 90 135
e 90 141
e 90 148
e 90 159
e 90 175
e 90 176
e 90 195
e 90 200
e 90 239
e 90 251
e 90 253
e 90 269
e 90 290
e 91 92
e 91 118
e 91 141
e 91 180
e 91 201
e 91 218
e 91 224
e 91 244
e 91 254
e 91 256
e 91 257
e 91 277
e 91 292
e 92 100
e 92 104
e 92 166
e 92 171
e 92 182
e 92 195
e 92 215
e 92 226
e 92 231
e 92 257
e 92 271
e 92 299
e 93 105
e 93 108
e 93 119
e 93 150
e 93 170
e 93 178
e 93 181
e 93 193
e 93 220
e 93 228
e 93 280
e 93 285
e 94 99
e 94 111
e 94 119
e 94 120
e 94 126
e 94 138
e 94 169
e 94 199
e 94 210
e 94 219
e 94 221
e 94 234
e 94 236
e 94 238
e 94 247
e 95 109
e 95 110
e 95 145
e 95 159
e 95 177
e 95 181
e 95 185
e 95 202
e 95 233
e 95 248
e 95 255
e 95 260
e 95 276
e 95 288
e 95 289
e 95 294
e 95 295
e 96 117
e 96 123
e 96 132
e 96 146
e 96 167
e 96 183
e 96 184
e 96 203
e 96 229
e 96 247
e 96 248
e 96 266
e 96 282
e 96 287
e 96 298
e 97 104
e 97 109
e 97 115
e 97 134
e 97 154
e 97 173
e 97 175
e 97 220
e 97 221
e 97 235
e 97 252
e 97 295
e 97 298
e 97 300
e 98 99
e 98 105
e 98 125
e 98 130
e 98 143
e 98 185
e 98 188
e 98 199
e 98 204
e 98 208
e 98 212
e 98 213
e 98 216
e 98 218
e 98 275
e 99 104
e 99 105
e 99 136
e 99 149
e 99 186
e 99 191
e 99 211
e 99 252
e 99 256
e 99 263
e 99 275
e 99 278
e 99 281
e 100 125
e 100 138
e 100 144
e 100 159
e 100 167
e 100 168
e 100 193
e 100 207
e 100 210
e 100 215
e 100 243
e 100 245
e 100 249
e 100 252
e 100 284
e 100 289
e 100 293
e 101 113
e 101 122
e 101 168
e 101 173
e 101 183
e 101 204
e 101 227
e 101 234
e 101 238
e 101 239
e 101 249
e 101 261
e 101 268
e 101 281
e 101 290
e 101 299
e 102 110
e 102 120
e 102 131
e 102 132
e 102 158
e 102 164
e 102 170
e 102 185
e 102 229
e 102 242
e 102 246
e 102 286
e 102 287
e 102 290
e 103 108
e 103 116
e 103 134
e 103 143
e 103 146
e 103 148
e 103 153
e 103 181
e 103 187
e 103 197
e 103 248
e 103 256
e 103 270
e 103 277
e 103 282
e 104 105
e 104 111
e 104 123
e 104 127
e 104 173
e 104 197
e 104 206
e 104 227
e 104 234
e 104 258
e 104 274
e 105 150
e 105 160
e 105 169
e 105 198
e 105 218
e 105 263
e 105 267
e 105 271
e 105 275
e 105 282
e 105 283
e 105 285
e 106 125
e 106 127
e 106 143
e 106 146
e 106 151
e 106 152
e 106 160
e 106 174
e 106 197
e 106 220
e 106 240
e 106 247
e 106 274
e 106 286
e 107 133
e 107 135
e 107 139
e 107 153
e 107 164
e 107 169
e 107 179
e 107 190
e 107 192
e 107 238
e 107 240
e 107 244
e 107 264
e 107 268
e 107 290
e 108 110
e 108 121
e 108 123
e 108 148
e 108 151
e 108 161
e 108 175
e 108 203
e 108 231
e 108 237
e 108 255
e 109 167
e 109 174
e 109 202
e 109 220
e 109 231
e 109 246
e 109 249
e 109 289
e 110 128
e 110 136
e 110 145
e 110 195
e 110 197
e 110 223
e 110 250
e 110 261
e 110 273
e 110 284
e 111 137
e 111 141
e 111 181
e 111 186
e 111 189
e 111 190
e 111 205
e 111 219
e 111 225
e 111 228
e 111 249
e 111 252
e 111 269
e 111 270
e 112 118
e 112 120
e 112 122
e 112 157
e 112 168
e 112 172
e 112 175
e 112 218
e 112 225
e 112 239
e 112 261
e 112 264
e 113 125
e 113 148
e 113 151
e 113 175
e 113 176
e 113 182
e 113 209
e 113 241
e 113 254
e 113 268
e 113 277
e 113 298
e 114 120
e 114 122
e 114 131
e 114 134
e 114 155
e 114 157
e 114 158
e 114 169
e 114 171
e 114 190
e 114 203
e 114 213
e 114 214
e 114 234
e 114 257
e 115 140
e 115 149
e 115 151
e 115 160
e 115 177
e 115 203
e 115 215
e 115 220
e 115 259
e 115 261
e 115 277
e 116 126
e 116 144
e 116 153
e 116 159
e 116 187
e 116 188
e 116 191
e 116 245
e 116 262
e 116 286
e 117 128
e 117 165
e 117 193
e 117 201
e 117 223
e 117 237
e 117 254
e 117 265
e 117 281
e 117 294
e 117 295
e 118 128
e 118 134
e 118 135
e 118 148
e 118 154
e 118 158
e 118 179
e 118 209
e 118 212
e 118 217
e 118 224
e 118 246
e 118 272
e 119 121
e 119 129
e 119 175
e 119 180
e 119 209
e 119 215
e 119 230
e 119 241
e 119 244
e 119 256
e 119 263
e 119 276
e 119 284
e 120 138
e 120 164
e 120 205
e 120 208
e 120 234
e 120 257
e 120 267
e 120 269
e 120 279
e 120 283
e 120 292
e 121 132
e 121 149
e 121 156
e 121 158
e 121 165
e 121 196
e 121 201
e 121 202
e 121 227
e 121 243
e 121 246
e 121 258
e 121 288
e 122 126
e 122 133
e 122 142
e 122 199
e 122 207
e 122 223
e 122 265
e 122 290
e 122 291
e 122 298
e 123 155
e 123 163
e 123 169
e 123 172
e 123 178
e 123 192
e 123 194
e 123 230
e 123 239
e 123 279
e 123 282
e 123 299
e 124 144
e 124 147
e 124 157
e 124 165
e 124 174
e 124 185
e 124 242
e 124 265
e 124 290
e 124 295
e 125 135
e 125 145
e 125 169
e 125 184
e 125 186
e 125 192
e 125 218
e 125 219
e 125 236
e 125 249
e 125 277
e 126 149
e 126 155
e 126 163
e 126 166
e 126 192
e 126 207
e 126 208
e 126 214
e 126 244
e 126 247
e 126 260
e 126 285
e 126 295
e 127 139
e 127 152
e 127 153
e 127 155
e 127 160
e 127 162
e 127 164
e 127 191
e 127 212
e 127 218
e 127 240
e 127 241
e 127 279
e 127 288
e 127 292
e 127 300
e 128 129
e 128 200
e 128 206
e 128 231
e 128 232
e 128 245
e 128 280
e 128 298
e 128 300
e 129 134
e 129 146
e 129 148
e 129 156
e 129 191
e 129 206
e 129 216
e 129 235
e 129 247
e 129 253
e 129 262
e 129 276
e 129 297
e 130 133
e 130 156
e 130 164
e 130 186
e 130 191
e 130 210
e 130 211
e 130 233
e 130 236
e 130 270
e 130 275
e 131 155
e 131 173
e 131 176
e 131 182
e 131 183
e 131 243
e 131 253
e 131 254
e 131 264
e 131 288
e 131 291
e 131 293
e 132 134
e 132 150
e 132 155
e 132 166
e 132 188
e 132 223
e 132 232
e 132 236
e 132 242
e 132 245
e 132 274
e 132 289
e 133 178
e 133 186
e 133 202
e 133 205
e 133 227
e 133 228
e 133 243
e 133 262
e 133 273
e 133 282
e 133 287
e 134 175
e 134 213
e 134 233
e 134 237
e 134 243
e 134 247
e 134 265
e 134 271
e 134 282
e 135 151
e 135 153
e 135 175
e 135 246
e 135 255
e 135 262
e 135 285
e 135 291
e 136 141
e 136 144
e 136 158
e 136 162
e 136 173
e 136 196
e 136 198
e 136 215
e 136 222
e 136 238
e 136 266
e 136 272
e 136 293
e 137 153
e 137 161
e 137 166
e 137 178
e 137 179
e 137 182
e 137 192
e 137 193
e 137 195
e 137 207
e 137 225
e 137 240
e 137 243
e 137 261
e 137 272
e 137 294
e 138 147
e 138 163
e 138 176
e 138 183
e 138 194
e 138 218
e 138 225
e 138 226
e 138 281
e 138 290
e 139 142
e 139 146
e 139 175
e 139 185
e 139 200
e 139 201
e 139 205
e 139 217
e 139 221
e 139 238
e 139 242
e 140 162
e 140 200
e 140 210
e 140 235
e 140 237
e 140 240
e 140 261
e 140 262
e 140 271
e 140 272
e 140 294
e 141 144
e 141 217
e 141 223
e 141 227
e 141 252
e 141 263
e 141 264
e 141 265
e 141 273
e 141 277
e 141 279
e 142 145
e 142 148
e 142 171
e 142 198
e 142 236
e 142 267
e 142 272
e 142 283
e 142 289
e 143 157
e 143 176
e 143 179
e 143 195
e 143 197
e 143 200
e 143 207
e 143 224
e 143 269
e 143 270
e 143 287
e 143 298
e 144 151
e 144 167
e 144 187
e 144 203
e 144 208
e 144 213
e 144 214
e 144 238
e 144 262
e 144 263
e 144 272
e 144 298
e 145 153
e 145 165
e 145 177
e 145 209
e 145 223
e 145 228
e 145 234
e 145 276
e 145 280
e 145 291
e 145 297
e 146 157
e 146 181
e 146 190
e 146 214
e 146 217
e 146 241
e 146 259
e 146 265
e 146 266
e 146 287
e 147 149
e 147 154
e 147 178
e 147 190
e 147 238
e 147 250
e 147 266
e 147 267
e 147 293
e 148 173
e 148 186
e 148 192
e 148 198
e 148 199
e 148 223
e 148 267
e 148 284
e 148 299
e 149 170
e 149 196
e 149 199
e 149 201
e 149 212
e 149 221
e 149 243
e 149 278
e 149 286
e 149 287
e 150 163
e 150 200
e 150 212
e 150 219
e 150 255
e 150 277
e 150 290
e 151 167
e 151 187
e 151 225
e 151 238
e 151 269
e 151 284
e 151 290
e 151 297
e 152 168
e 152 181
e 152 182
e 152 189
e 152 209
e 152 215
e 152 217
e 152 230
e 152 250
e 152 272
e 152 283
e 152 290
e 153 169
e 153 172
e 153 189
e 153 197
e 153 204
e 153 207
e 153 269
e 153 277
e 153 278
e 153 283
e 154 161
e 154 176
e 154 177
e 154 202
e 154 208
e 154 221
e 154 231
e 154 250
e 154 251
e 154 261
e 154 263
e 154 264
e 154 295
e 155 161
e 155 182
e 155 189
e 155 205
e 155 206
e 155 223
e 155 235
e 155 240
e 155 250
e 155 267
e 155 279
e 155 295
e 156 204
e 156 221
e 156 231
e 156 233
e 156 241
e 156 250
e 156 258
e 156 266
e 156 297
e 157 169
e 157 203
e 157 206
e 157 208
e 157 216
e 157 286
e 157 300
e 158 160
e 158 185
e 158 192
e 158 198
e 158 216
e 158 218
e 158 220
e 158 229
e 158 296
e 159 171
e 159 187
e 159 194
e 159 219
e 159 230
e 159 278
e 160 173
e 160 180
e 160 213
e 160 247
e 160 253
e 160 260
e 160 281
e 160 287
e 160 288
e 161 163
e 161 213
e 161 219
e 161 220
e 161 253
e 161 263
e 161 281
e 161 292
e 162 164
e 162 186
e 162 209
e 162 215
e 162 225
e 162 230
e 162 262
e 162 265
e 162 272
e 162 274
e 162 280
e 162 281
e 163 175
e 163 204
e 163 205
e 163 214
e 163 233
e 163 236
e 163 245
e 163 268
e 163 269
e 163 281
e 163 288
e 164 178
e 164 179
e 164 233
e 164 258
e 164 259
e 164 280
e 164 290
e 164 292
e 164 294
e 164 296
e 165 166
e 165 186
e 165 210
e 165 216
e 165 259
e 165 261
e 165 277
e 165 286
e 165 293
e 166 168
e 166 182
e 166 189
e 166 223
e 166 232
e 166 236
e 166 256
e 166 278
e 166 297
e 167 170
e 167 171
e 167 184
e 167 187
e 167 196
e 167 200
e 167 202
e 167 252
e 167 261
e 167 287
e 167 292
e 168 191
e 168 194
e 168 206
e 168 207
e 168 219
e 168 220
e 168 223
e 168 264
e 168 270
e 168 296
e 168 299
e 169 170
e 169 180
e 169 183
e 169 206
e 169 257
e 169 286
e 170 193
e 170 253
e 170 259
e 170 278
e 170 299
e 170 300
e 171 194
e 171 200
e 171 211
e 171 213
e 171 216
e 171 220
e 171 233
e 171 273
e 171 298
e 172 179
e 172 185
e 172 205
e 172 232
e 172 256
e 172 261
e 172 262
e 172 267
e 172 296
e 172 300
e 173 179
e 173 219
e 173 227
e 173 242
e 173 249
e 173 266
e 173 280
e 173 298
e 174 190
e 174 194
e 174 195
e 174 202
e 174 212
e 174 241
e 174 246
e 174 269
e 174 270
e 174 293
e 175 179
e 175 180
e 175 203
e 175 211
e 175 212
e 175 259
e 175 297
e 175 298
e 176 186
e 176 214
e 176 226
e 176 240
e 176 251
e 176 269
e 176 272
e 176 280
e 176 300
e 177 195
e 177 197
e 177 210
e 177 212
e 177 213
e 177 232
e 177 253
e 177 256
e 177 265
e 177 268
e 177 277
e 178 184
e 178 203
e 178 228
e 178 248
e 178 249
e 178 258
e 178 262
e 178 286
e 178 292
e 179 213
e 179 216
e 179 219
e 179 222
e 179 225
e 179 232
e 179 246
e 179 277
e 179 291
e 180 182
e 180 214
e 180 219
e 180 229
e 180 260
e 180 278
e 180 282
e 181 191
e 181 205
e 181 217
e 181 221
e 181 242
e 181 253
e 182 220
e 182 227
e 182 246
e 182 252
e 182 276
e 183 206
e 183 212
e 183 222
e 183 239
e 183 246
e 183 253
e 183 273
e 183 276
e 183 279
e 183 285
e 184 205
e 184 224
e 184 232
e 184 245
e 184 258
e 185 194
e 185 227
e 185 233
e 185 243
e 185 252
e 185 275
e 186 220
e 186 300
e 187 188
e 187 191
e 187 198
e 187 225
e 187 250
e 187 270
e 187 274
e 187 276
e 187 279
e 187 291
e 187 297
e 188 191
e 188 207
e 188 208
e 188 218
e 188 237
e 188 240
e 188 261
e 188 281
e 188 284
e 189 228
e 189 248
e 189 269
e 189 286
e 190 214
e 190 216
e 190 217
e 190 275
e 190 276
e 190 288
e 190 295
e 191 197
e 191 219
e 191 247
e 191 275
e 191 293
e 192 210
e 192 213
e 192 228
e 192 237
e 192 275
e 192 277
e 192 294
e 193 204
e 193 219
e 193 233
e 193 238
e 193 278
e 193 296
e 194 220
e 194 224
e 194 225
e 194 230
e 194 241
e 194 296
e 195 220
e 195 257
e 195 267
e 195 269
e 195 286
e 195 294
e 195 297
e 196 207
e 196 208
e 196 209
e 196 215
e 196 230
e 196 263
e 196 282
e 196 293
e 197 203
e 197 229
e 197 251
e 197 255
e 197 276
e 197 279
e 197 292
e 198 207
e 198 208
e 198 218
e 198 222
e 198 229
e 198 230
e 198 239
e 198 250
e 198 253
e 198 256
e 199 225
e 199 226
e 199 247
e 199 265
e 199 273
e 199 276
e 199 283
e 199 300
e 200 202
e 200 212
e 200 213
e 200 262
e 200 266
e 200 286
e 201 213
e 201 215
e 201 223
e 201 240
e 201 289
e 201 294
e 202 213
e 202 238
e 202 241
e 202 261
e 202 288
e 202 290
e 203 238
e 203 246
e 203 270
e 203 282
e 203 283
e 203 284
e 203 288
e 204 219
e 204 258
e 204 283
e 204 293
e 204 297
e 204 298
e 205 222
e 205 248
e 205 253
e 205 284
e 206 207
e 206 211
e 206 227
e 206 243
e 206 250
e 206 255
e 206 266
e 206 280
e 206 296
e 207 210
e 207 214
e 207 235
e 207 274
e 207 285
e 208 209
e 208 212
e 208 260
e 208 273
e 209 211
e 209 243
e 209 256
e 209 260
e 209 285
e 209 289
e 209 294
e 209 299
e 210 214
e 210 252
e 210 260
e 210 282
e 211 222
e 211 228
e 211 242
e 211 248
e 211 260
e 211 264
e 212 222
e 212 237
e 212 248
e 212 276
e 212 296
e 213 217
e 213 262
e 214 251
e 214 260
e 214 280
e 215 222
e 215 235
e 215 244
e 215 255
e 215 283
e 216 231
e 216 235
e 216 261
e 216 281
e 216 287
e 216 300
e 217 218
e 217 241
e 217 255
e 217 269
e 217 279
e 217 284
e 217 296
e 218 219
e 218 247
e 218 270
e 218 272
e 218 286
e 218 297
e 219 220
e 219 283
e 220 293
e 221 224
e 221 257
e 221 277
e 221 289
e 221 297
e 221 300
e 222 235
e 222 249
e 222 268
e 222 273
e 222 284
e 222 287
e 222 293
e 223 230
e 223 234
e 223 244
e 223 263
e 224 235
e 224 245
e 224 261
e 224 271
e 224 278
e 224 298
e 225 239
e 225 265
e 225 275
e 225 282
e 226 241
e 226 248
e 226 251
e 226 264
e 226 268
e 226 286
e 226 294
e 227 240
e 227 251
e 227 263
e 227 272
e 227 284
e 227 288
e 227 289
e 228 229
e 228 234
e 228 236
e 228 276
e 229 234
e 229 258
e 229 273
e 229 283
e 229 293
e 229 294
e 230 236
e 230 256
e 230 257
e 230 267
e 230 279
e 231 232
e 231 233
e 231 239
e 231 278
e 231 279
e 232 234
e 232 241
e 232 248
e 232 266
e 232 277
e 232 283
e 232 296
e 233 243
e 233 254
e 233 264
e 234 235
e 234 250
e 235 243
e 236 242
e 236 249
e 236 250
e 236 294
e 236 299
e 237 251
e 237 259
e 237 265
e 238 242
e 238 253
e 238 254
e 238 278
e 238 281
e 239 274
e 239 286
e 239 291
e 240 249
e 240 256
e 240 267
e 240 279
e 240 281
e 240 288
e 241 251
e 242 266
e 243 270
e 243 286
e 243 290
e 244 245
e 244 258
e 244 259
e 244 266
e 244 287
e 245 250
e 245 270
e 245 277
e 245 294
e 245 295
e 246 247
e 246 269
e 246 274
e 246 275
e 247 254
e 247 291
e 247 294
e 248 253
e 248 257
e 248 265
e 248 271
e 248 272
e 248 299
e 249 262
e 249 274
e 249 276
e 249 297
e 250 252
e 250 292
e 251 258
e 251 265
e 251 268
e 251 282
e 251 292
e 252 256
e 252 258
e 253 278
e 253 299
e 254 270
e 254 273
e 254 275
e 255 263
e 255 268
e 256 259
e 256 269
e 256 291
e 257 258
e 257 267
e 257 272
e 257 297
e 258 281
e 258 291
e 259 274
e 260 262
e 260 275
e 260 284
e 260 291
e 261 281
e 262 271
e 262 298
e 263 276
e 263 279
e 264 268
e 264 292
e 265 268
e 265 269
e 265 298
e 266 280
e 266 289
e 267 269
e 267 273
e 267 277
e 267 292
e 268 291
e 270 271
e 270 282
e 270 284
e 271 284
e 271 289
e 272 274
e 273 293
e 273 298
e 273 299
e 274 278
e 274 280
e 274 296
e 275 282
e 275 284
e 275 287
e 275 289
e 276 284
e 276 287
e 277 289
e 278 294
e 279 282
e 280 281
e 280 287
e 280 297
e 281 288
e 281 291
e 281 300
e 282 285
e 283 285
e 283 297
e 285 288
e 285 289
e 285 293
e 285 300
e 287 293
e 287 295
e 289 291
e 290 291
e 290 297
